c Sudoku solution
p cnf 729 0
133 0
184 0
214 0
242 0
359 0
382 0
396 0
457 0
521 0
549 0
562 0
612 0
122 0
626 0
698 0
715 0
767 0
856 0
878 0
288 0
893 0
832 0
913 0
423 0
116 0
266 0
446 0
986 0
736 0
576 0
999 0
781 0
729 0
869 0
419 0
239 0
485 0
887 0
975 0
845 0
811 0
824 0
952 0
331 0
583 0
689 0
179 0
364 0
325 0
227 0
318 0
517 0
594 0
677 0
928 0
937 0
663 0
434 0
635 0
538 0
468 0
555 0
165 0
295 0
961 0
944 0
641 0
654 0
774 0
792 0
472 0
491 0
271 0
197 0
373 0
151 0
253 0
347 0
148 0
743 0
758 0
